195
0 131 175 32 168 19 171 140 55 57 
33 160 30 13 162 60 143 107 86 166 
172 193 179 125 185 117 70 159 147 114 
21 23 154 18 170 145 34 141 181 76 
99 134 180 115 135 184 45 73 27 61 
38 133 132 16 174 110 26 84 31 11 
165 37 87 46 97 102 9 176 178 153 
72 94 89 194 158 152 1 156 67 14 
80 5 163 20 56 149 77 182 183 51 
10 29 6 191 39 64 44 121 105 187 
3 28 62 71 54 108 22 100 118 69 
142 65 17 190 92 104 12 157 177 109 
164 138 123 96 155 42 161 150 95 35 
48 167 192 129 7 103 144 63 15 122 
93 68 111 139 74 66 78 128 85 113 
119 4 112 116 173 50 91 189 75 151 
24 106 25 47 186 98 40 148 79 82 
8 169 81 58 126 124 90 2 41 43 
101 120 52 188 88 146 36 130 53 83 
49 59 137 127 136 
